30 3000
1 498
2 485
3 471
4 464
5 451
6 450
7 449
8 427
9 424
10 405
11 403
12 400
13 394
14 388
15 380
16 375
17 374
18 374
19 369
20 368
21 365
22 357
23 355
24 344
25 339
26 337
27 328
28 322
29 322
30 321
